NAME : tsp225.1612.tour
COMMENT : Length = 1612
COMMENT : Found by LKH [Keld Helsgaun] Sat May 25 06:41:10 2013
TYPE : TOUR
DIMENSION : 45
TOUR_SECTION
3
4
195
46
45
52
51
47
117
116
66
65
109
125
124
122
184
182
173
174
176
146
157
141
137
163
158
165
130
210
92
91
99
98
217
202
34
36
13
17
20
18
39
8
5
-1
EOF
